c This is the enc3 file generate by sty
p cnf 41 49
 1 2 0
 -1 -2 0
 3 4 0
 -3 -4 0
 5 6 0
 -5 -6 0
 7 8 0
 -7 -8 0
 9 10 0
 -9 -10 0
 11 12 0
 -11 -12 0
 13 14 0
 -13 -14 0
 15 16 0
 -15 -16 0
 -1 17 0
 -2 18 0
 -3 -2 19 0
 -3 -1 20 0
 -4 -1 21 0
 -4 -2 22 0
 23 0
 -7 -6 24 0
 -7 -5 25 0
 -8 -5 26 0
 -8 -6 27 0
 -9 -6 28 0
 -10 -5 29 0
 -9 -5 30 0
 -10 -6 31 0
 -11 -8 -4 0
 -11 -8 -4 0
 -12 -7 0
 -11 -8 -4 0
 -12 -7 0
 -12 -3 0
 -14 -11 32 0
 -13 -12 33 0
 -14 -12 34 0
 -13 -11 35 0
 -16 -9 -11 36 0
 -15 -10 -12 36 0
 -16 -10 -11 37 0
 -16 -9 -12 38 0
 -15 -9 -12 39 0
 -15 -10 -11 40 0
 -15 -9 -11 41 0
 -16 -10 -12 41 0
